(set-logic QF_LRA)
(declare-fun T1 () Real )
(declare-fun T2 () Real )
(declare-fun T3 () Real )
(declare-fun T4 () Real )
(declare-fun T5 () Real )
(declare-fun T6 () Real )
(declare-fun Z () Real )
(assert ( and 
(or ( <= ( + T1 58 ) T2 ) ( <= ( + T2 65 ) T1 ) )
(or ( <= ( + T1 155 )  ( + T2 65 ) ) ( <= ( + T2 88 )( + T1 58 ) ) )
(or ( <= ( + T1 165 )  ( + T2 88 ) ) ( <= ( + T2 109 )( + T1 155 ) ) )
(or ( <= ( + T1 256 )  ( + T2 109 ) ) ( <= ( + T2 150 )( + T1 165 ) ) )
(or ( <= ( + T1 293 )  ( + T2 150 ) ) ( <= ( + T2 226 )( + T1 256 ) ) )
(or ( <= ( + T1 311 )  ( + T2 226 ) ) ( <= ( + T2 305 )( + T1 293 ) ) )
(or ( <= ( + T1 312 )  ( + T2 305 ) ) ( <= ( + T2 403 )( + T1 311 ) ) )
(or ( <= ( + T1 396 )  ( + T2 403 ) ) ( <= ( + T2 497 )( + T1 312 ) ) )
(or ( <= ( + T1 58 ) T3 ) ( <= ( + T3 30 ) T1 ) )
(or ( <= ( + T1 155 )  ( + T3 30 ) ) ( <= ( + T3 85 )( + T1 58 ) ) )
(or ( <= ( + T1 165 )  ( + T3 85 ) ) ( <= ( + T3 166 )( + T1 155 ) ) )
(or ( <= ( + T1 256 )  ( + T3 166 ) ) ( <= ( + T3 242 )( + T1 165 ) ) )
(or ( <= ( + T1 293 )  ( + T3 242 ) ) ( <= ( + T3 325 )( + T1 256 ) ) )
(or ( <= ( + T1 311 )  ( + T3 325 ) ) ( <= ( + T3 398 )( + T1 293 ) ) )
(or ( <= ( + T1 312 )  ( + T3 398 ) ) ( <= ( + T3 466 )( + T1 311 ) ) )
(or ( <= ( + T1 396 )  ( + T3 466 ) ) ( <= ( + T3 470 )( + T1 312 ) ) )
(or ( <= ( + T1 58 ) T4 ) ( <= ( + T4 8 ) T1 ) )
(or ( <= ( + T1 155 )  ( + T4 8 ) ) ( <= ( + T4 22 )( + T1 58 ) ) )
(or ( <= ( + T1 165 )  ( + T4 22 ) ) ( <= ( + T4 104 )( + T1 155 ) ) )
(or ( <= ( + T1 256 )  ( + T4 104 ) ) ( <= ( + T4 126 )( + T1 165 ) ) )
(or ( <= ( + T1 293 )  ( + T4 126 ) ) ( <= ( + T4 173 )( + T1 256 ) ) )
(or ( <= ( + T1 311 )  ( + T4 173 ) ) ( <= ( + T4 231 )( + T1 293 ) ) )
(or ( <= ( + T1 312 )  ( + T4 231 ) ) ( <= ( + T4 272 )( + T1 311 ) ) )
(or ( <= ( + T1 396 )  ( + T4 272 ) ) ( <= ( + T4 276 )( + T1 312 ) ) )
(or ( <= ( + T1 58 ) T5 ) ( <= ( + T5 7 ) T1 ) )
(or ( <= ( + T1 155 )  ( + T5 7 ) ) ( <= ( + T5 57 )( + T1 58 ) ) )
(or ( <= ( + T1 165 )  ( + T5 57 ) ) ( <= ( + T5 152 )( + T1 155 ) ) )
(or ( <= ( + T1 256 )  ( + T5 152 ) ) ( <= ( + T5 195 )( + T1 165 ) ) )
(or ( <= ( + T1 293 )  ( + T5 195 ) ) ( <= ( + T5 214 )( + T1 256 ) ) )
(or ( <= ( + T1 311 )  ( + T5 214 ) ) ( <= ( + T5 261 )( + T1 293 ) ) )
(or ( <= ( + T1 312 )  ( + T5 261 ) ) ( <= ( + T5 287 )( + T1 311 ) ) )
(or ( <= ( + T1 396 )  ( + T5 287 ) ) ( <= ( + T5 371 )( + T1 312 ) ) )
(or ( <= ( + T1 58 ) T6 ) ( <= ( + T6 70 ) T1 ) )
(or ( <= ( + T1 155 )  ( + T6 70 ) ) ( <= ( + T6 116 )( + T1 58 ) ) )
(or ( <= ( + T1 165 )  ( + T6 116 ) ) ( <= ( + T6 192 )( + T1 155 ) ) )
(or ( <= ( + T1 256 )  ( + T6 192 ) ) ( <= ( + T6 289 )( + T1 165 ) ) )
(or ( <= ( + T1 293 )  ( + T6 289 ) ) ( <= ( + T6 314 )( + T1 256 ) ) )
(or ( <= ( + T1 311 )  ( + T6 314 ) ) ( <= ( + T6 339 )( + T1 293 ) ) )
(or ( <= ( + T1 312 )  ( + T6 339 ) ) ( <= ( + T6 381 )( + T1 311 ) ) )
(or ( <= ( + T1 396 )  ( + T6 381 ) ) ( <= ( + T6 435 )( + T1 312 ) ) )
(or ( <= ( + T2 65 ) T3 ) ( <= ( + T3 30 ) T2 ) )
(or ( <= ( + T2 88 )  ( + T3 30 ) ) ( <= ( + T3 85 )( + T2 65 ) ) )
(or ( <= ( + T2 109 )  ( + T3 85 ) ) ( <= ( + T3 166 )( + T2 88 ) ) )
(or ( <= ( + T2 150 )  ( + T3 166 ) ) ( <= ( + T3 242 )( + T2 109 ) ) )
(or ( <= ( + T2 226 )  ( + T3 242 ) ) ( <= ( + T3 325 )( + T2 150 ) ) )
(or ( <= ( + T2 305 )  ( + T3 325 ) ) ( <= ( + T3 398 )( + T2 226 ) ) )
(or ( <= ( + T2 403 )  ( + T3 398 ) ) ( <= ( + T3 466 )( + T2 305 ) ) )
(or ( <= ( + T2 497 )  ( + T3 466 ) ) ( <= ( + T3 470 )( + T2 403 ) ) )
(or ( <= ( + T2 65 ) T4 ) ( <= ( + T4 8 ) T2 ) )
(or ( <= ( + T2 88 )  ( + T4 8 ) ) ( <= ( + T4 22 )( + T2 65 ) ) )
(or ( <= ( + T2 109 )  ( + T4 22 ) ) ( <= ( + T4 104 )( + T2 88 ) ) )
(or ( <= ( + T2 150 )  ( + T4 104 ) ) ( <= ( + T4 126 )( + T2 109 ) ) )
(or ( <= ( + T2 226 )  ( + T4 126 ) ) ( <= ( + T4 173 )( + T2 150 ) ) )
(or ( <= ( + T2 305 )  ( + T4 173 ) ) ( <= ( + T4 231 )( + T2 226 ) ) )
(or ( <= ( + T2 403 )  ( + T4 231 ) ) ( <= ( + T4 272 )( + T2 305 ) ) )
(or ( <= ( + T2 497 )  ( + T4 272 ) ) ( <= ( + T4 276 )( + T2 403 ) ) )
(or ( <= ( + T2 65 ) T5 ) ( <= ( + T5 7 ) T2 ) )
(or ( <= ( + T2 88 )  ( + T5 7 ) ) ( <= ( + T5 57 )( + T2 65 ) ) )
(or ( <= ( + T2 109 )  ( + T5 57 ) ) ( <= ( + T5 152 )( + T2 88 ) ) )
(or ( <= ( + T2 150 )  ( + T5 152 ) ) ( <= ( + T5 195 )( + T2 109 ) ) )
(or ( <= ( + T2 226 )  ( + T5 195 ) ) ( <= ( + T5 214 )( + T2 150 ) ) )
(or ( <= ( + T2 305 )  ( + T5 214 ) ) ( <= ( + T5 261 )( + T2 226 ) ) )
(or ( <= ( + T2 403 )  ( + T5 261 ) ) ( <= ( + T5 287 )( + T2 305 ) ) )
(or ( <= ( + T2 497 )  ( + T5 287 ) ) ( <= ( + T5 371 )( + T2 403 ) ) )
(or ( <= ( + T2 65 ) T6 ) ( <= ( + T6 70 ) T2 ) )
(or ( <= ( + T2 88 )  ( + T6 70 ) ) ( <= ( + T6 116 )( + T2 65 ) ) )
(or ( <= ( + T2 109 )  ( + T6 116 ) ) ( <= ( + T6 192 )( + T2 88 ) ) )
(or ( <= ( + T2 150 )  ( + T6 192 ) ) ( <= ( + T6 289 )( + T2 109 ) ) )
(or ( <= ( + T2 226 )  ( + T6 289 ) ) ( <= ( + T6 314 )( + T2 150 ) ) )
(or ( <= ( + T2 305 )  ( + T6 314 ) ) ( <= ( + T6 339 )( + T2 226 ) ) )
(or ( <= ( + T2 403 )  ( + T6 339 ) ) ( <= ( + T6 381 )( + T2 305 ) ) )
(or ( <= ( + T2 497 )  ( + T6 381 ) ) ( <= ( + T6 435 )( + T2 403 ) ) )
(or ( <= ( + T3 30 ) T4 ) ( <= ( + T4 8 ) T3 ) )
(or ( <= ( + T3 85 )  ( + T4 8 ) ) ( <= ( + T4 22 )( + T3 30 ) ) )
(or ( <= ( + T3 166 )  ( + T4 22 ) ) ( <= ( + T4 104 )( + T3 85 ) ) )
(or ( <= ( + T3 242 )  ( + T4 104 ) ) ( <= ( + T4 126 )( + T3 166 ) ) )
(or ( <= ( + T3 325 )  ( + T4 126 ) ) ( <= ( + T4 173 )( + T3 242 ) ) )
(or ( <= ( + T3 398 )  ( + T4 173 ) ) ( <= ( + T4 231 )( + T3 325 ) ) )
(or ( <= ( + T3 466 )  ( + T4 231 ) ) ( <= ( + T4 272 )( + T3 398 ) ) )
(or ( <= ( + T3 470 )  ( + T4 272 ) ) ( <= ( + T4 276 )( + T3 466 ) ) )
(or ( <= ( + T3 30 ) T5 ) ( <= ( + T5 7 ) T3 ) )
(or ( <= ( + T3 85 )  ( + T5 7 ) ) ( <= ( + T5 57 )( + T3 30 ) ) )
(or ( <= ( + T3 166 )  ( + T5 57 ) ) ( <= ( + T5 152 )( + T3 85 ) ) )
(or ( <= ( + T3 242 )  ( + T5 152 ) ) ( <= ( + T5 195 )( + T3 166 ) ) )
(or ( <= ( + T3 325 )  ( + T5 195 ) ) ( <= ( + T5 214 )( + T3 242 ) ) )
(or ( <= ( + T3 398 )  ( + T5 214 ) ) ( <= ( + T5 261 )( + T3 325 ) ) )
(or ( <= ( + T3 466 )  ( + T5 261 ) ) ( <= ( + T5 287 )( + T3 398 ) ) )
(or ( <= ( + T3 470 )  ( + T5 287 ) ) ( <= ( + T5 371 )( + T3 466 ) ) )
(or ( <= ( + T3 30 ) T6 ) ( <= ( + T6 70 ) T3 ) )
(or ( <= ( + T3 85 )  ( + T6 70 ) ) ( <= ( + T6 116 )( + T3 30 ) ) )
(or ( <= ( + T3 166 )  ( + T6 116 ) ) ( <= ( + T6 192 )( + T3 85 ) ) )
(or ( <= ( + T3 242 )  ( + T6 192 ) ) ( <= ( + T6 289 )( + T3 166 ) ) )
(or ( <= ( + T3 325 )  ( + T6 289 ) ) ( <= ( + T6 314 )( + T3 242 ) ) )
(or ( <= ( + T3 398 )  ( + T6 314 ) ) ( <= ( + T6 339 )( + T3 325 ) ) )
(or ( <= ( + T3 466 )  ( + T6 339 ) ) ( <= ( + T6 381 )( + T3 398 ) ) )
(or ( <= ( + T3 470 )  ( + T6 381 ) ) ( <= ( + T6 435 )( + T3 466 ) ) )
(or ( <= ( + T4 8 ) T5 ) ( <= ( + T5 7 ) T4 ) )
(or ( <= ( + T4 22 )  ( + T5 7 ) ) ( <= ( + T5 57 )( + T4 8 ) ) )
(or ( <= ( + T4 104 )  ( + T5 57 ) ) ( <= ( + T5 152 )( + T4 22 ) ) )
(or ( <= ( + T4 126 )  ( + T5 152 ) ) ( <= ( + T5 195 )( + T4 104 ) ) )
(or ( <= ( + T4 173 )  ( + T5 195 ) ) ( <= ( + T5 214 )( + T4 126 ) ) )
(or ( <= ( + T4 231 )  ( + T5 214 ) ) ( <= ( + T5 261 )( + T4 173 ) ) )
(or ( <= ( + T4 272 )  ( + T5 261 ) ) ( <= ( + T5 287 )( + T4 231 ) ) )
(or ( <= ( + T4 276 )  ( + T5 287 ) ) ( <= ( + T5 371 )( + T4 272 ) ) )
(or ( <= ( + T4 8 ) T6 ) ( <= ( + T6 70 ) T4 ) )
(or ( <= ( + T4 22 )  ( + T6 70 ) ) ( <= ( + T6 116 )( + T4 8 ) ) )
(or ( <= ( + T4 104 )  ( + T6 116 ) ) ( <= ( + T6 192 )( + T4 22 ) ) )
(or ( <= ( + T4 126 )  ( + T6 192 ) ) ( <= ( + T6 289 )( + T4 104 ) ) )
(or ( <= ( + T4 173 )  ( + T6 289 ) ) ( <= ( + T6 314 )( + T4 126 ) ) )
(or ( <= ( + T4 231 )  ( + T6 314 ) ) ( <= ( + T6 339 )( + T4 173 ) ) )
(or ( <= ( + T4 272 )  ( + T6 339 ) ) ( <= ( + T6 381 )( + T4 231 ) ) )
(or ( <= ( + T4 276 )  ( + T6 381 ) ) ( <= ( + T6 435 )( + T4 272 ) ) )
(or ( <= ( + T5 7 ) T6 ) ( <= ( + T6 70 ) T5 ) )
(or ( <= ( + T5 57 )  ( + T6 70 ) ) ( <= ( + T6 116 )( + T5 7 ) ) )
(or ( <= ( + T5 152 )  ( + T6 116 ) ) ( <= ( + T6 192 )( + T5 57 ) ) )
(or ( <= ( + T5 195 )  ( + T6 192 ) ) ( <= ( + T6 289 )( + T5 152 ) ) )
(or ( <= ( + T5 214 )  ( + T6 289 ) ) ( <= ( + T6 314 )( + T5 195 ) ) )
(or ( <= ( + T5 261 )  ( + T6 314 ) ) ( <= ( + T6 339 )( + T5 214 ) ) )
(or ( <= ( + T5 287 )  ( + T6 339 ) ) ( <= ( + T6 381 )( + T5 261 ) ) )
(or ( <= ( + T5 371 )  ( + T6 381 ) ) ( <= ( + T6 435 )( + T5 287 ) ) )
( <= ( + T1 396 ) Z)
( <= ( + T2 497 ) Z)
( <= ( + T3 470 ) Z)
( <= ( + T4 276 ) Z)
( <= ( + T5 371 ) Z)
( <= ( + T6 435 ) Z)
( >= T1 0 )
( >= T2 0 )
( >= T3 0 )
( >= T4 0 )
( >= T5 0 )
( >= T6 0 )
) )
(minimize Z)
(check-sat)